PARAMETER_FILE = even/LKH_uncomplete_graph/x10/de/par/random89.par
PROBLEM_FILE = even/LKH_uncomplete_graph/x10/de/mat/random89.tsp
Successes/Runs = 0/10
Cost.min = 763, Cost.avg = 763.00, Cost.max = 763
Gap.min = 0.0000%, Gap.avg = 0.0000%, Gap.max = 0.0000%
Trials.min = 1000, Trials.avg = 1000.0, Trials.max = 1000
Time.min = 0.50 sec., Time.avg = 0.55 sec., Time.max = 0.63 sec.
Time.total = 5.59 sec.
请按任意键继续. . . 
